Traveling Salesman Problem/TSP_generados/Aleatorio1621103396_13.tsp
NAME: Aleatorio1621103396_13.tsp
COMMENT: Randomly generated scenario
TYPE: TSP
DIMENSION: 13
EDGE_WEIGHT_TYPE: ATT
NODE_COORD_SECTION
1 0.08 44.41
2 36.7 28.8
3 48.81 23.91
4 45.07 45.16
5 37.31 15.43
6 40.41 44.72
7 23.62 29.25
8 41.48 47.45
9 28.31 36.34
10 19.5 35.66
11 47.78 41.11
12 19.43 30.77
13 25.13 34.38
