Traveling Salesman Problem/TSP_generados/Aleatorio1621103396_13.opt.tour
NAME: Aleatorio1621103396_13.opt.tour
COMMENT: Optimal solution for Aleatorio1621103396_13 (143.7137409304635)
TYPE: TOUR
DIMENSION: 13
TOUR_SECTION
1 10 13 9 6 8 4 11 3 5 2 7 12
-1
EOF
